language Essence 1.3

letting blksize_delta be
        function(1 --> 10, 2 --> 10, 3 --> 10, 4 --> 10, 5 --> 10, 6 --> 10, 7 --> 10, 8 --> 10, 9 --> 10, 10 --> 10,
                 11 --> 10, 12 --> 10, 13 --> 10, 14 --> 10, 15 --> 10, 16 --> 10, 17 --> 10, 18 --> 10, 19 --> 10,
                 20 --> 10, 21 --> 10, 22 --> 10, 23 --> 10, 24 --> 10, 25 --> 10, 26 --> 10, 27 --> 10, 28 --> 10,
                 29 --> 10, 30 --> 10, 31 --> 10, 32 --> 10, 33 --> 10, 34 --> 10, 35 --> 10, 36 --> 10, 37 --> 10,
                 38 --> 10, 39 --> 10, 40 --> 10, 41 --> 10, 42 --> 10, 43 --> 10, 44 --> 10, 45 --> 10, 46 --> 10,
                 47 --> 10, 48 --> 10, 49 --> 10, 50 --> 10, 51 --> 10, 52 --> 10)
letting maxcars be
        function(1 --> 8, 2 --> 9, 3 --> 8, 4 --> 8, 5 --> 8, 6 --> 8, 7 --> 8, 8 --> 8, 9 --> 8, 10 --> 8, 11 --> 8,
                 12 --> 8, 13 --> 8, 14 --> 8, 15 --> 10, 16 --> 8, 17 --> 10, 18 --> 8, 19 --> 8, 20 --> 8, 21 --> 8,
                 22 --> 8, 23 --> 8, 24 --> 10, 25 --> 8, 26 --> 8, 27 --> 8, 28 --> 8, 29 --> 8, 30 --> 8, 31 --> 8,
                 32 --> 8, 33 --> 8, 34 --> 8, 35 --> 8, 36 --> 8, 37 --> 8, 38 --> 8, 39 --> 8, 40 --> 8, 41 --> 8,
                 42 --> 9, 43 --> 8, 44 --> 8, 45 --> 8, 46 --> 9, 47 --> 8, 48 --> 8, 49 --> 9, 50 --> 10, 51 --> 8,
                 52 --> 8)
letting n_cars be 165
letting n_classes be 15
letting n_options be 52
letting quantity be
        function(1 --> 11, 2 --> 11, 3 --> 11, 4 --> 11, 5 --> 11, 6 --> 11, 7 --> 11, 8 --> 11, 9 --> 11, 10 --> 11,
                 11 --> 11, 12 --> 11, 13 --> 11, 14 --> 11, 15 --> 11)
letting usage be
        relation((1, 10), (1, 17), (1, 18), (1, 24), (1, 25), (1, 33), (1, 40), (1, 47), (2, 9), (2, 16), (2, 25),
                 (2, 51), (2, 52), (3, 32), (3, 39), (4, 7), (4, 13), (4, 23), (4, 28), (4, 35), (4, 41), (4, 42),
                 (5, 14), (5, 18), (5, 23), (5, 25), (5, 34), (5, 35), (5, 46), (5, 47), (5, 52), (6, 10), (6, 13),
                 (6, 18), (6, 38), (6, 42), (6, 49), (6, 52), (7, 16), (7, 30), (7, 35), (7, 36), (8, 8), (8, 11),
                 (8, 32), (8, 44), (8, 52), (9, 9), (9, 12), (9, 14), (9, 22), (9, 29), (9, 38), (9, 42), (9, 50),
                 (10, 13), (10, 18), (10, 30), (10, 32), (10, 34), (10, 45), (10, 50), (11, 1), (11, 2), (11, 4),
                 (11, 5), (11, 28), (11, 29), (12, 10), (12, 21), (12, 25), (12, 52), (13, 21), (13, 22), (13, 39),
                 (13, 45), (14, 3), (14, 21), (14, 27), (14, 33), (14, 40), (15, 2), (15, 5), (15, 6), (15, 10),
                 (15, 15), (15, 19), (15, 20), (15, 24), (15, 26), (15, 30), (15, 31), (15, 33), (15, 37), (15, 40),
                 (15, 43), (15, 48))
$ Visualisation for usage
$  1 10
$  1 17
$  1 18
$  1 24
$  1 25
$  1 33
$  1 40
$  1 47
$  2  9
$  2 16
$  2 25
$  2 51
$  2 52
$  3 32
$  3 39
$  4  7
$  4 13
$  4 23
$  4 28
$  4 35
$  4 41
$  4 42
$  5 14
$  5 18
$  5 23
$  5 25
$  5 34
$  5 35
$  5 46
$  5 47
$  5 52
$  6 10
$  6 13
$  6 18
$  6 38
$  6 42
$  6 49
$  6 52
$  7 16
$  7 30
$  7 35
$  7 36
$  8  8
$  8 11
$  8 32
$  8 44
$  8 52
$  9  9
$  9 12
$  9 14
$  9 22
$  9 29
$  9 38
$  9 42
$  9 50
$ 10 13
$ 10 18
$ 10 30
$ 10 32
$ 10 34
$ 10 45
$ 10 50
$ 11  1
$ 11  2
$ 11  4
$ 11  5
$ 11 28
$ 11 29
$ 12 10
$ 12 21
$ 12 25
$ 12 52
$ 13 21
$ 13 22
$ 13 39
$ 13 45
$ 14  3
$ 14 21
$ 14 27
$ 14 33
$ 14 40
$ 15  2
$ 15  5
$ 15  6
$ 15 10
$ 15 15
$ 15 19
$ 15 20
$ 15 24
$ 15 26
$ 15 30
$ 15 31
$ 15 33
$ 15 37
$ 15 40
$ 15 43
$ 15 48

